p cnf 8 25
-1 0
7 6 -4 0
-4 -3 0
-4 -2 0
-3 6 1 0
5 4 -6 3 0
-6 -1 0
-8 7 5 0
5 4 3 -1 0
-5 6 1 0
7 6 -2 0
-3 0
-2 -1 0
-2 0
-8 7 6 0
8 -7 0
-5 -4 0
-8 -4 0
-7 -6 0
-4 6 1 0
8 -6 4 2 0
-5 -3 0
-7 -5 0
-8 -2 0
8 -5 0
